\ENCODING=ISO-8859-1
\Problem name: IloCplex

Maximize
 obj1: 644 Z_1 + 511 Z_2 + 238 Z_3 - X_11 - 11 X_12 - 4 X_13 - 7 X_14 - 8 X_15
       - 8 X_16 - 100 Y_12 - 132 Y_13 - 71 Y_14 - 77 Y_15 - 111 Y_16 - 5 I_11
       - 3 I_12 - 5 I_13 - 4 I_14 - 2 I_15 - I_16 - X_21 - 11 X_22 - 4 X_23
       - 7 X_24 - 8 X_25 - 8 X_26 - 100 Y_22 - 132 Y_23 - 71 Y_24 - 77 Y_25
       - 111 Y_26 - 5 I_21 - 3 I_22 - 5 I_23 - 4 I_24 - 2 I_25 - I_26 - X_31
       - 11 X_32 - 4 X_33 - 7 X_34 - 8 X_35 - 8 X_36 - 100 Y_32 - 132 Y_33
       - 71 Y_34 - 77 Y_35 - 111 Y_36 - 5 I_31 - 3 I_32 - 5 I_33 - 4 I_34
       - 2 I_35 - I_36 - X_41 - 11 X_42 - 4 X_43 - 7 X_44 - 8 X_45 - 8 X_46
       - 100 Y_42 - 132 Y_43 - 71 Y_44 - 77 Y_45 - 111 Y_46 - 5 I_41 - 3 I_42
       - 5 I_43 - 4 I_44 - 2 I_45 - I_46 - X_51 - 11 X_52 - 4 X_53 - 7 X_54
       - 8 X_55 - 8 X_56 - 100 Y_52 - 132 Y_53 - 71 Y_54 - 77 Y_55 - 111 Y_56
       - 5 I_51 - 3 I_52 - 5 I_53 - 4 I_54 - 2 I_55 - I_56 - X_61 - 11 X_62
       - 4 X_63 - 7 X_64 - 8 X_65 - 8 X_66 - 100 Y_62 - 132 Y_63 - 71 Y_64
       - 77 Y_65 - 111 Y_66 - 5 I_61 - 3 I_62 - 5 I_63 - 4 I_64 - 2 I_65 - I_66
       - 5 K_1_2_1 - 5 K_1_2_2 - 5 K_1_2_3 - 5 K_1_2_4 - 5 K_1_2_5 - 5 K_1_2_6
       - 5 K_1_3_1 - 5 K_1_3_2 - 5 K_1_3_3 - 5 K_1_3_4 - 5 K_1_3_5 - 5 K_1_3_6
       - 5 K_1_4_1 - 5 K_1_4_2 - 5 K_1_4_3 - 5 K_1_4_4 - 5 K_1_4_5 - 5 K_1_4_6
       - 5 K_1_5_1 - 5 K_1_5_2 - 5 K_1_5_3 - 5 K_1_5_4 - 5 K_1_5_5 - 5 K_1_5_6
       - 5 K_1_6_1 - 5 K_1_6_2 - 5 K_1_6_3 - 5 K_1_6_4 - 5 K_1_6_5 - 5 K_1_6_6
       - 5 K_2_1_1 - 5 K_2_1_2 - 5 K_2_1_3 - 5 K_2_1_4 - 5 K_2_1_5 - 5 K_2_1_6
       - 5 K_2_3_1 - 5 K_2_3_2 - 5 K_2_3_3 - 5 K_2_3_4 - 5 K_2_3_5 - 5 K_2_3_6
       - 5 K_2_4_1 - 5 K_2_4_2 - 5 K_2_4_3 - 5 K_2_4_4 - 5 K_2_4_5 - 5 K_2_4_6
       - 5 K_2_5_1 - 5 K_2_5_2 - 5 K_2_5_3 - 5 K_2_5_4 - 5 K_2_5_5 - 5 K_2_5_6
       - 5 K_2_6_1 - 5 K_2_6_2 - 5 K_2_6_3 - 5 K_2_6_4 - 5 K_2_6_5 - 5 K_2_6_6
       - 5 K_3_1_1 - 5 K_3_1_2 - 5 K_3_1_3 - 5 K_3_1_4 - 5 K_3_1_5 - 5 K_3_1_6
       - 5 K_3_2_1 - 5 K_3_2_2 - 5 K_3_2_3 - 5 K_3_2_4 - 5 K_3_2_5 - 5 K_3_2_6
       - 5 K_3_4_1 - 5 K_3_4_2 - 5 K_3_4_3 - 5 K_3_4_4 - 5 K_3_4_5 - 5 K_3_4_6
       - 5 K_3_5_1 - 5 K_3_5_2 - 5 K_3_5_3 - 5 K_3_5_4 - 5 K_3_5_5 - 5 K_3_5_6
       - 5 K_3_6_1 - 5 K_3_6_2 - 5 K_3_6_3 - 5 K_3_6_4 - 5 K_3_6_5 - 5 K_3_6_6
       - 5 K_4_1_1 - 5 K_4_1_2 - 5 K_4_1_3 - 5 K_4_1_4 - 5 K_4_1_5 - 5 K_4_1_6
       - 5 K_4_2_1 - 5 K_4_2_2 - 5 K_4_2_3 - 5 K_4_2_4 - 5 K_4_2_5 - 5 K_4_2_6
       - 5 K_4_3_1 - 5 K_4_3_2 - 5 K_4_3_3 - 5 K_4_3_4 - 5 K_4_3_5 - 5 K_4_3_6
       - 5 K_4_5_1 - 5 K_4_5_2 - 5 K_4_5_3 - 5 K_4_5_4 - 5 K_4_5_5 - 5 K_4_5_6
       - 5 K_4_6_1 - 5 K_4_6_2 - 5 K_4_6_3 - 5 K_4_6_4 - 5 K_4_6_5 - 5 K_4_6_6
       - 5 K_5_1_1 - 5 K_5_1_2 - 5 K_5_1_3 - 5 K_5_1_4 - 5 K_5_1_5 - 5 K_5_1_6
       - 5 K_5_2_1 - 5 K_5_2_2 - 5 K_5_2_3 - 5 K_5_2_4 - 5 K_5_2_5 - 5 K_5_2_6
       - 5 K_5_3_1 - 5 K_5_3_2 - 5 K_5_3_3 - 5 K_5_3_4 - 5 K_5_3_5 - 5 K_5_3_6
       - 5 K_5_4_1 - 5 K_5_4_2 - 5 K_5_4_3 - 5 K_5_4_4 - 5 K_5_4_5 - 5 K_5_4_6
       - 5 K_5_6_1 - 5 K_5_6_2 - 5 K_5_6_3 - 5 K_5_6_4 - 5 K_5_6_5 - 5 K_5_6_6
       - 5 K_6_1_1 - 5 K_6_1_2 - 5 K_6_1_3 - 5 K_6_1_4 - 5 K_6_1_5 - 5 K_6_1_6
       - 5 K_6_2_1 - 5 K_6_2_2 - 5 K_6_2_3 - 5 K_6_2_4 - 5 K_6_2_5 - 5 K_6_2_6
       - 5 K_6_3_1 - 5 K_6_3_2 - 5 K_6_3_3 - 5 K_6_3_4 - 5 K_6_3_5 - 5 K_6_3_6
       - 5 K_6_4_1 - 5 K_6_4_2 - 5 K_6_4_3 - 5 K_6_4_4 - 5 K_6_4_5 - 5 K_6_4_6
       - 5 K_6_5_1 - 5 K_6_5_2 - 5 K_6_5_3 - 5 K_6_5_4 - 5 K_6_5_5 - 5 K_6_5_6
Subject To
 c1:   - 15 Z_1 - Z_2 - 20 Z_3 + X_11 - I_11 + K_1_2_1 - K_2_1_1  = 0
 c2:   - 15 Z_1 - Z_2 - 20 Z_3 + X_11 - I_11 + K_1_3_1 - K_3_1_1  = 0
 c3:   - 15 Z_1 - Z_2 - 20 Z_3 + X_11 - I_11 + K_1_4_1 - K_4_1_1  = 0
 c4:   - 15 Z_1 - Z_2 - 20 Z_3 + X_11 - I_11 + K_1_5_1 - K_5_1_1  = 0
 c5:   - 15 Z_1 - Z_2 - 20 Z_3 + X_11 - I_11 + K_1_6_1 - K_6_1_1  = 0
 c6:   - 15 Z_1 - Z_2 - 20 Z_3 + X_21 - I_21 - K_1_2_1 + K_2_1_1  = 0
 c7:   - 15 Z_1 - Z_2 - 20 Z_3 + X_21 - I_21 + K_2_3_1 - K_3_2_1  = 0
 c8:   - 15 Z_1 - Z_2 - 20 Z_3 + X_21 - I_21 + K_2_4_1 - K_4_2_1  = 0
 c9:   - 15 Z_1 - Z_2 - 20 Z_3 + X_21 - I_21 + K_2_5_1 - K_5_2_1  = 0
 c10:  - 15 Z_1 - Z_2 - 20 Z_3 + X_21 - I_21 + K_2_6_1 - K_6_2_1  = 0
 c11:  - 15 Z_1 - Z_2 - 20 Z_3 + X_31 - I_31 - K_1_3_1 + K_3_1_1  = 0
 c12:  - 15 Z_1 - Z_2 - 20 Z_3 + X_31 - I_31 - K_2_3_1 + K_3_2_1  = 0
 c13:  - 15 Z_1 - Z_2 - 20 Z_3 + X_31 - I_31 + K_3_4_1 - K_4_3_1  = 0
 c14:  - 15 Z_1 - Z_2 - 20 Z_3 + X_31 - I_31 + K_3_5_1 - K_5_3_1  = 0
 c15:  - 15 Z_1 - Z_2 - 20 Z_3 + X_31 - I_31 + K_3_6_1 - K_6_3_1  = 0
 c16:  - 15 Z_1 - Z_2 - 20 Z_3 + X_41 - I_41 - K_1_4_1 + K_4_1_1  = 0
 c17:  - 15 Z_1 - Z_2 - 20 Z_3 + X_41 - I_41 - K_2_4_1 + K_4_2_1  = 0
 c18:  - 15 Z_1 - Z_2 - 20 Z_3 + X_41 - I_41 - K_3_4_1 + K_4_3_1  = 0
 c19:  - 15 Z_1 - Z_2 - 20 Z_3 + X_41 - I_41 + K_4_5_1 - K_5_4_1  = 0
 c20:  - 15 Z_1 - Z_2 - 20 Z_3 + X_41 - I_41 + K_4_6_1 - K_6_4_1  = 0
 c21:  - 15 Z_1 - Z_2 - 20 Z_3 + X_51 - I_51 - K_1_5_1 + K_5_1_1  = 0
 c22:  - 15 Z_1 - Z_2 - 20 Z_3 + X_51 - I_51 - K_2_5_1 + K_5_2_1  = 0
 c23:  - 15 Z_1 - Z_2 - 20 Z_3 + X_51 - I_51 - K_3_5_1 + K_5_3_1  = 0
 c24:  - 15 Z_1 - Z_2 - 20 Z_3 + X_51 - I_51 - K_4_5_1 + K_5_4_1  = 0
 c25:  - 15 Z_1 - Z_2 - 20 Z_3 + X_51 - I_51 + K_5_6_1 - K_6_5_1  = 0
 c26:  - 15 Z_1 - Z_2 - 20 Z_3 + X_61 - I_61 - K_1_6_1 + K_6_1_1  = 0
 c27:  - 15 Z_1 - Z_2 - 20 Z_3 + X_61 - I_61 - K_2_6_1 + K_6_2_1  = 0
 c28:  - 15 Z_1 - Z_2 - 20 Z_3 + X_61 - I_61 - K_3_6_1 + K_6_3_1  = 0
 c29:  - 15 Z_1 - Z_2 - 20 Z_3 + X_61 - I_61 - K_4_6_1 + K_6_4_1  = 0
 c30:  - 15 Z_1 - Z_2 - 20 Z_3 + X_61 - I_61 - K_5_6_1 + K_6_5_1  = 0
 c31:  - 5 Z_1 - Z_2 - 8 Z_3 + X_12 + I_11 - I_12 + K_1_2_2 - K_2_1_2  = 0
 c32:  - 5 Z_1 - Z_2 - 8 Z_3 + X_12 + I_11 - I_12 + K_1_3_2 - K_3_1_2  = 0
 c33:  - 5 Z_1 - Z_2 - 8 Z_3 + X_12 + I_11 - I_12 + K_1_4_2 - K_4_1_2  = 0
 c34:  - 5 Z_1 - Z_2 - 8 Z_3 + X_12 + I_11 - I_12 + K_1_5_2 - K_5_1_2  = 0
 c35:  - 5 Z_1 - Z_2 - 8 Z_3 + X_12 + I_11 - I_12 + K_1_6_2 - K_6_1_2  = 0
 c36:  - 5 Z_1 - Z_2 - 8 Z_3 + X_22 + I_21 - I_22 - K_1_2_2 + K_2_1_2  = 0
 c37:  - 5 Z_1 - Z_2 - 8 Z_3 + X_22 + I_21 - I_22 + K_2_3_2 - K_3_2_2  = 0
 c38:  - 5 Z_1 - Z_2 - 8 Z_3 + X_22 + I_21 - I_22 + K_2_4_2 - K_4_2_2  = 0
 c39:  - 5 Z_1 - Z_2 - 8 Z_3 + X_22 + I_21 - I_22 + K_2_5_2 - K_5_2_2  = 0
 c40:  - 5 Z_1 - Z_2 - 8 Z_3 + X_22 + I_21 - I_22 + K_2_6_2 - K_6_2_2  = 0
 c41:  - 5 Z_1 - Z_2 - 8 Z_3 + X_32 + I_31 - I_32 - K_1_3_2 + K_3_1_2  = 0
 c42:  - 5 Z_1 - Z_2 - 8 Z_3 + X_32 + I_31 - I_32 - K_2_3_2 + K_3_2_2  = 0
 c43:  - 5 Z_1 - Z_2 - 8 Z_3 + X_32 + I_31 - I_32 + K_3_4_2 - K_4_3_2  = 0
 c44:  - 5 Z_1 - Z_2 - 8 Z_3 + X_32 + I_31 - I_32 + K_3_5_2 - K_5_3_2  = 0
 c45:  - 5 Z_1 - Z_2 - 8 Z_3 + X_32 + I_31 - I_32 + K_3_6_2 - K_6_3_2  = 0
 c46:  - 5 Z_1 - Z_2 - 8 Z_3 + X_42 + I_41 - I_42 - K_1_4_2 + K_4_1_2  = 0
 c47:  - 5 Z_1 - Z_2 - 8 Z_3 + X_42 + I_41 - I_42 - K_2_4_2 + K_4_2_2  = 0
 c48:  - 5 Z_1 - Z_2 - 8 Z_3 + X_42 + I_41 - I_42 - K_3_4_2 + K_4_3_2  = 0
 c49:  - 5 Z_1 - Z_2 - 8 Z_3 + X_42 + I_41 - I_42 + K_4_5_2 - K_5_4_2  = 0
 c50:  - 5 Z_1 - Z_2 - 8 Z_3 + X_42 + I_41 - I_42 + K_4_6_2 - K_6_4_2  = 0
 c51:  - 5 Z_1 - Z_2 - 8 Z_3 + X_52 + I_51 - I_52 - K_1_5_2 + K_5_1_2  = 0
 c52:  - 5 Z_1 - Z_2 - 8 Z_3 + X_52 + I_51 - I_52 - K_2_5_2 + K_5_2_2  = 0
 c53:  - 5 Z_1 - Z_2 - 8 Z_3 + X_52 + I_51 - I_52 - K_3_5_2 + K_5_3_2  = 0
 c54:  - 5 Z_1 - Z_2 - 8 Z_3 + X_52 + I_51 - I_52 - K_4_5_2 + K_5_4_2  = 0
 c55:  - 5 Z_1 - Z_2 - 8 Z_3 + X_52 + I_51 - I_52 + K_5_6_2 - K_6_5_2  = 0
 c56:  - 5 Z_1 - Z_2 - 8 Z_3 + X_62 + I_61 - I_62 - K_1_6_2 + K_6_1_2  = 0
 c57:  - 5 Z_1 - Z_2 - 8 Z_3 + X_62 + I_61 - I_62 - K_2_6_2 + K_6_2_2  = 0
 c58:  - 5 Z_1 - Z_2 - 8 Z_3 + X_62 + I_61 - I_62 - K_3_6_2 + K_6_3_2  = 0
 c59:  - 5 Z_1 - Z_2 - 8 Z_3 + X_62 + I_61 - I_62 - K_4_6_2 + K_6_4_2  = 0
 c60:  - 5 Z_1 - Z_2 - 8 Z_3 + X_62 + I_61 - I_62 - K_5_6_2 + K_6_5_2  = 0
 c61:  - 14 Z_1 - 11 Z_2 - Z_3 + X_13 + I_12 - I_13 + K_1_2_3 - K_2_1_3  = 0
 c62:  - 14 Z_1 - 11 Z_2 - Z_3 + X_13 + I_12 - I_13 + K_1_3_3 - K_3_1_3  = 0
 c63:  - 14 Z_1 - 11 Z_2 - Z_3 + X_13 + I_12 - I_13 + K_1_4_3 - K_4_1_3  = 0
 c64:  - 14 Z_1 - 11 Z_2 - Z_3 + X_13 + I_12 - I_13 + K_1_5_3 - K_5_1_3  = 0
 c65:  - 14 Z_1 - 11 Z_2 - Z_3 + X_13 + I_12 - I_13 + K_1_6_3 - K_6_1_3  = 0
 c66:  - 14 Z_1 - 11 Z_2 - Z_3 + X_23 + I_22 - I_23 - K_1_2_3 + K_2_1_3  = 0
 c67:  - 14 Z_1 - 11 Z_2 - Z_3 + X_23 + I_22 - I_23 + K_2_3_3 - K_3_2_3  = 0
 c68:  - 14 Z_1 - 11 Z_2 - Z_3 + X_23 + I_22 - I_23 + K_2_4_3 - K_4_2_3  = 0
 c69:  - 14 Z_1 - 11 Z_2 - Z_3 + X_23 + I_22 - I_23 + K_2_5_3 - K_5_2_3  = 0
 c70:  - 14 Z_1 - 11 Z_2 - Z_3 + X_23 + I_22 - I_23 + K_2_6_3 - K_6_2_3  = 0
 c71:  - 14 Z_1 - 11 Z_2 - Z_3 + X_33 + I_32 - I_33 - K_1_3_3 + K_3_1_3  = 0
 c72:  - 14 Z_1 - 11 Z_2 - Z_3 + X_33 + I_32 - I_33 - K_2_3_3 + K_3_2_3  = 0
 c73:  - 14 Z_1 - 11 Z_2 - Z_3 + X_33 + I_32 - I_33 + K_3_4_3 - K_4_3_3  = 0
 c74:  - 14 Z_1 - 11 Z_2 - Z_3 + X_33 + I_32 - I_33 + K_3_5_3 - K_5_3_3  = 0
 c75:  - 14 Z_1 - 11 Z_2 - Z_3 + X_33 + I_32 - I_33 + K_3_6_3 - K_6_3_3  = 0
 c76:  - 14 Z_1 - 11 Z_2 - Z_3 + X_43 + I_42 - I_43 - K_1_4_3 + K_4_1_3  = 0
 c77:  - 14 Z_1 - 11 Z_2 - Z_3 + X_43 + I_42 - I_43 - K_2_4_3 + K_4_2_3  = 0
 c78:  - 14 Z_1 - 11 Z_2 - Z_3 + X_43 + I_42 - I_43 - K_3_4_3 + K_4_3_3  = 0
 c79:  - 14 Z_1 - 11 Z_2 - Z_3 + X_43 + I_42 - I_43 + K_4_5_3 - K_5_4_3  = 0
 c80:  - 14 Z_1 - 11 Z_2 - Z_3 + X_43 + I_42 - I_43 + K_4_6_3 - K_6_4_3  = 0
 c81:  - 14 Z_1 - 11 Z_2 - Z_3 + X_53 + I_52 - I_53 - K_1_5_3 + K_5_1_3  = 0
 c82:  - 14 Z_1 - 11 Z_2 - Z_3 + X_53 + I_52 - I_53 - K_2_5_3 + K_5_2_3  = 0
 c83:  - 14 Z_1 - 11 Z_2 - Z_3 + X_53 + I_52 - I_53 - K_3_5_3 + K_5_3_3  = 0
 c84:  - 14 Z_1 - 11 Z_2 - Z_3 + X_53 + I_52 - I_53 - K_4_5_3 + K_5_4_3  = 0
 c85:  - 14 Z_1 - 11 Z_2 - Z_3 + X_53 + I_52 - I_53 + K_5_6_3 - K_6_5_3  = 0
 c86:  - 14 Z_1 - 11 Z_2 - Z_3 + X_63 + I_62 - I_63 - K_1_6_3 + K_6_1_3  = 0
 c87:  - 14 Z_1 - 11 Z_2 - Z_3 + X_63 + I_62 - I_63 - K_2_6_3 + K_6_2_3  = 0
 c88:  - 14 Z_1 - 11 Z_2 - Z_3 + X_63 + I_62 - I_63 - K_3_6_3 + K_6_3_3  = 0
 c89:  - 14 Z_1 - 11 Z_2 - Z_3 + X_63 + I_62 - I_63 - K_4_6_3 + K_6_4_3  = 0
 c90:  - 14 Z_1 - 11 Z_2 - Z_3 + X_63 + I_62 - I_63 - K_5_6_3 + K_6_5_3  = 0
 c91:  - 9 Z_1 - 17 Z_2 - 11 Z_3 + X_14 + I_13 - I_14 + K_1_2_4 - K_2_1_4  = 0
 c92:  - 9 Z_1 - 17 Z_2 - 11 Z_3 + X_14 + I_13 - I_14 + K_1_3_4 - K_3_1_4  = 0
 c93:  - 9 Z_1 - 17 Z_2 - 11 Z_3 + X_14 + I_13 - I_14 + K_1_4_4 - K_4_1_4  = 0
 c94:  - 9 Z_1 - 17 Z_2 - 11 Z_3 + X_14 + I_13 - I_14 + K_1_5_4 - K_5_1_4  = 0
 c95:  - 9 Z_1 - 17 Z_2 - 11 Z_3 + X_14 + I_13 - I_14 + K_1_6_4 - K_6_1_4  = 0
 c96:  - 9 Z_1 - 17 Z_2 - 11 Z_3 + X_24 + I_23 - I_24 - K_1_2_4 + K_2_1_4  = 0
 c97:  - 9 Z_1 - 17 Z_2 - 11 Z_3 + X_24 + I_23 - I_24 + K_2_3_4 - K_3_2_4  = 0
 c98:  - 9 Z_1 - 17 Z_2 - 11 Z_3 + X_24 + I_23 - I_24 + K_2_4_4 - K_4_2_4  = 0
 c99:  - 9 Z_1 - 17 Z_2 - 11 Z_3 + X_24 + I_23 - I_24 + K_2_5_4 - K_5_2_4  = 0
 c100: - 9 Z_1 - 17 Z_2 - 11 Z_3 + X_24 + I_23 - I_24 + K_2_6_4 - K_6_2_4  = 0
 c101: - 9 Z_1 - 17 Z_2 - 11 Z_3 + X_34 + I_33 - I_34 - K_1_3_4 + K_3_1_4  = 0
 c102: - 9 Z_1 - 17 Z_2 - 11 Z_3 + X_34 + I_33 - I_34 - K_2_3_4 + K_3_2_4  = 0
 c103: - 9 Z_1 - 17 Z_2 - 11 Z_3 + X_34 + I_33 - I_34 + K_3_4_4 - K_4_3_4  = 0
 c104: - 9 Z_1 - 17 Z_2 - 11 Z_3 + X_34 + I_33 - I_34 + K_3_5_4 - K_5_3_4  = 0
 c105: - 9 Z_1 - 17 Z_2 - 11 Z_3 + X_34 + I_33 - I_34 + K_3_6_4 - K_6_3_4  = 0
 c106: - 9 Z_1 - 17 Z_2 - 11 Z_3 + X_44 + I_43 - I_44 - K_1_4_4 + K_4_1_4  = 0
 c107: - 9 Z_1 - 17 Z_2 - 11 Z_3 + X_44 + I_43 - I_44 - K_2_4_4 + K_4_2_4  = 0
 c108: - 9 Z_1 - 17 Z_2 - 11 Z_3 + X_44 + I_43 - I_44 - K_3_4_4 + K_4_3_4  = 0
 c109: - 9 Z_1 - 17 Z_2 - 11 Z_3 + X_44 + I_43 - I_44 + K_4_5_4 - K_5_4_4  = 0
 c110: - 9 Z_1 - 17 Z_2 - 11 Z_3 + X_44 + I_43 - I_44 + K_4_6_4 - K_6_4_4  = 0
 c111: - 9 Z_1 - 17 Z_2 - 11 Z_3 + X_54 + I_53 - I_54 - K_1_5_4 + K_5_1_4  = 0
 c112: - 9 Z_1 - 17 Z_2 - 11 Z_3 + X_54 + I_53 - I_54 - K_2_5_4 + K_5_2_4  = 0
 c113: - 9 Z_1 - 17 Z_2 - 11 Z_3 + X_54 + I_53 - I_54 - K_3_5_4 + K_5_3_4  = 0
 c114: - 9 Z_1 - 17 Z_2 - 11 Z_3 + X_54 + I_53 - I_54 - K_4_5_4 + K_5_4_4  = 0
 c115: - 9 Z_1 - 17 Z_2 - 11 Z_3 + X_54 + I_53 - I_54 + K_5_6_4 - K_6_5_4  = 0
 c116: - 9 Z_1 - 17 Z_2 - 11 Z_3 + X_64 + I_63 - I_64 - K_1_6_4 + K_6_1_4  = 0
 c117: - 9 Z_1 - 17 Z_2 - 11 Z_3 + X_64 + I_63 - I_64 - K_2_6_4 + K_6_2_4  = 0
 c118: - 9 Z_1 - 17 Z_2 - 11 Z_3 + X_64 + I_63 - I_64 - K_3_6_4 + K_6_3_4  = 0
 c119: - 9 Z_1 - 17 Z_2 - 11 Z_3 + X_64 + I_63 - I_64 - K_4_6_4 + K_6_4_4  = 0
 c120: - 9 Z_1 - 17 Z_2 - 11 Z_3 + X_64 + I_63 - I_64 - K_5_6_4 + K_6_5_4  = 0
 c121: - 20 Z_1 - 3 Z_2 - Z_3 + X_15 + I_14 - I_15 + K_1_2_5 - K_2_1_5  = 0
 c122: - 20 Z_1 - 3 Z_2 - Z_3 + X_15 + I_14 - I_15 + K_1_3_5 - K_3_1_5  = 0
 c123: - 20 Z_1 - 3 Z_2 - Z_3 + X_15 + I_14 - I_15 + K_1_4_5 - K_4_1_5  = 0
 c124: - 20 Z_1 - 3 Z_2 - Z_3 + X_15 + I_14 - I_15 + K_1_5_5 - K_5_1_5  = 0
 c125: - 20 Z_1 - 3 Z_2 - Z_3 + X_15 + I_14 - I_15 + K_1_6_5 - K_6_1_5  = 0
 c126: - 20 Z_1 - 3 Z_2 - Z_3 + X_25 + I_24 - I_25 - K_1_2_5 + K_2_1_5  = 0
 c127: - 20 Z_1 - 3 Z_2 - Z_3 + X_25 + I_24 - I_25 + K_2_3_5 - K_3_2_5  = 0
 c128: - 20 Z_1 - 3 Z_2 - Z_3 + X_25 + I_24 - I_25 + K_2_4_5 - K_4_2_5  = 0
 c129: - 20 Z_1 - 3 Z_2 - Z_3 + X_25 + I_24 - I_25 + K_2_5_5 - K_5_2_5  = 0
 c130: - 20 Z_1 - 3 Z_2 - Z_3 + X_25 + I_24 - I_25 + K_2_6_5 - K_6_2_5  = 0
 c131: - 20 Z_1 - 3 Z_2 - Z_3 + X_35 + I_34 - I_35 - K_1_3_5 + K_3_1_5  = 0
 c132: - 20 Z_1 - 3 Z_2 - Z_3 + X_35 + I_34 - I_35 - K_2_3_5 + K_3_2_5  = 0
 c133: - 20 Z_1 - 3 Z_2 - Z_3 + X_35 + I_34 - I_35 + K_3_4_5 - K_4_3_5  = 0
 c134: - 20 Z_1 - 3 Z_2 - Z_3 + X_35 + I_34 - I_35 + K_3_5_5 - K_5_3_5  = 0
 c135: - 20 Z_1 - 3 Z_2 - Z_3 + X_35 + I_34 - I_35 + K_3_6_5 - K_6_3_5  = 0
 c136: - 20 Z_1 - 3 Z_2 - Z_3 + X_45 + I_44 - I_45 - K_1_4_5 + K_4_1_5  = 0
 c137: - 20 Z_1 - 3 Z_2 - Z_3 + X_45 + I_44 - I_45 - K_2_4_5 + K_4_2_5  = 0
 c138: - 20 Z_1 - 3 Z_2 - Z_3 + X_45 + I_44 - I_45 - K_3_4_5 + K_4_3_5  = 0
 c139: - 20 Z_1 - 3 Z_2 - Z_3 + X_45 + I_44 - I_45 + K_4_5_5 - K_5_4_5  = 0
 c140: - 20 Z_1 - 3 Z_2 - Z_3 + X_45 + I_44 - I_45 + K_4_6_5 - K_6_4_5  = 0
 c141: - 20 Z_1 - 3 Z_2 - Z_3 + X_55 + I_54 - I_55 - K_1_5_5 + K_5_1_5  = 0
 c142: - 20 Z_1 - 3 Z_2 - Z_3 + X_55 + I_54 - I_55 - K_2_5_5 + K_5_2_5  = 0
 c143: - 20 Z_1 - 3 Z_2 - Z_3 + X_55 + I_54 - I_55 - K_3_5_5 + K_5_3_5  = 0
 c144: - 20 Z_1 - 3 Z_2 - Z_3 + X_55 + I_54 - I_55 - K_4_5_5 + K_5_4_5  = 0
 c145: - 20 Z_1 - 3 Z_2 - Z_3 + X_55 + I_54 - I_55 + K_5_6_5 - K_6_5_5  = 0
 c146: - 20 Z_1 - 3 Z_2 - Z_3 + X_65 + I_64 - I_65 - K_1_6_5 + K_6_1_5  = 0
 c147: - 20 Z_1 - 3 Z_2 - Z_3 + X_65 + I_64 - I_65 - K_2_6_5 + K_6_2_5  = 0
 c148: - 20 Z_1 - 3 Z_2 - Z_3 + X_65 + I_64 - I_65 - K_3_6_5 + K_6_3_5  = 0
 c149: - 20 Z_1 - 3 Z_2 - Z_3 + X_65 + I_64 - I_65 - K_4_6_5 + K_6_4_5  = 0
 c150: - 20 Z_1 - 3 Z_2 - Z_3 + X_65 + I_64 - I_65 - K_5_6_5 + K_6_5_5  = 0
 c151: - 11 Z_1 - 14 Z_2 - 19 Z_3 + X_16 + I_15 - I_16 + K_1_2_6 - K_2_1_6  = 0
 c152: - 11 Z_1 - 14 Z_2 - 19 Z_3 + X_16 + I_15 - I_16 + K_1_3_6 - K_3_1_6  = 0
 c153: - 11 Z_1 - 14 Z_2 - 19 Z_3 + X_16 + I_15 - I_16 + K_1_4_6 - K_4_1_6  = 0
 c154: - 11 Z_1 - 14 Z_2 - 19 Z_3 + X_16 + I_15 - I_16 + K_1_5_6 - K_5_1_6  = 0
 c155: - 11 Z_1 - 14 Z_2 - 19 Z_3 + X_16 + I_15 - I_16 + K_1_6_6 - K_6_1_6  = 0
 c156: - 11 Z_1 - 14 Z_2 - 19 Z_3 + X_26 + I_25 - I_26 - K_1_2_6 + K_2_1_6  = 0
 c157: - 11 Z_1 - 14 Z_2 - 19 Z_3 + X_26 + I_25 - I_26 + K_2_3_6 - K_3_2_6  = 0
 c158: - 11 Z_1 - 14 Z_2 - 19 Z_3 + X_26 + I_25 - I_26 + K_2_4_6 - K_4_2_6  = 0
 c159: - 11 Z_1 - 14 Z_2 - 19 Z_3 + X_26 + I_25 - I_26 + K_2_5_6 - K_5_2_6  = 0
 c160: - 11 Z_1 - 14 Z_2 - 19 Z_3 + X_26 + I_25 - I_26 + K_2_6_6 - K_6_2_6  = 0
 c161: - 11 Z_1 - 14 Z_2 - 19 Z_3 + X_36 + I_35 - I_36 - K_1_3_6 + K_3_1_6  = 0
 c162: - 11 Z_1 - 14 Z_2 - 19 Z_3 + X_36 + I_35 - I_36 - K_2_3_6 + K_3_2_6  = 0
 c163: - 11 Z_1 - 14 Z_2 - 19 Z_3 + X_36 + I_35 - I_36 + K_3_4_6 - K_4_3_6  = 0
 c164: - 11 Z_1 - 14 Z_2 - 19 Z_3 + X_36 + I_35 - I_36 + K_3_5_6 - K_5_3_6  = 0
 c165: - 11 Z_1 - 14 Z_2 - 19 Z_3 + X_36 + I_35 - I_36 + K_3_6_6 - K_6_3_6  = 0
 c166: - 11 Z_1 - 14 Z_2 - 19 Z_3 + X_46 + I_45 - I_46 - K_1_4_6 + K_4_1_6  = 0
 c167: - 11 Z_1 - 14 Z_2 - 19 Z_3 + X_46 + I_45 - I_46 - K_2_4_6 + K_4_2_6  = 0
 c168: - 11 Z_1 - 14 Z_2 - 19 Z_3 + X_46 + I_45 - I_46 - K_3_4_6 + K_4_3_6  = 0
 c169: - 11 Z_1 - 14 Z_2 - 19 Z_3 + X_46 + I_45 - I_46 + K_4_5_6 - K_5_4_6  = 0
 c170: - 11 Z_1 - 14 Z_2 - 19 Z_3 + X_46 + I_45 - I_46 + K_4_6_6 - K_6_4_6  = 0
 c171: - 11 Z_1 - 14 Z_2 - 19 Z_3 + X_56 + I_55 - I_56 - K_1_5_6 + K_5_1_6  = 0
 c172: - 11 Z_1 - 14 Z_2 - 19 Z_3 + X_56 + I_55 - I_56 - K_2_5_6 + K_5_2_6  = 0
 c173: - 11 Z_1 - 14 Z_2 - 19 Z_3 + X_56 + I_55 - I_56 - K_3_5_6 + K_5_3_6  = 0
 c174: - 11 Z_1 - 14 Z_2 - 19 Z_3 + X_56 + I_55 - I_56 - K_4_5_6 + K_5_4_6  = 0
 c175: - 11 Z_1 - 14 Z_2 - 19 Z_3 + X_56 + I_55 - I_56 + K_5_6_6 - K_6_5_6  = 0
 c176: - 11 Z_1 - 14 Z_2 - 19 Z_3 + X_66 + I_65 - I_66 - K_1_6_6 + K_6_1_6  = 0
 c177: - 11 Z_1 - 14 Z_2 - 19 Z_3 + X_66 + I_65 - I_66 - K_2_6_6 + K_6_2_6  = 0
 c178: - 11 Z_1 - 14 Z_2 - 19 Z_3 + X_66 + I_65 - I_66 - K_3_6_6 + K_6_3_6  = 0
 c179: - 11 Z_1 - 14 Z_2 - 19 Z_3 + X_66 + I_65 - I_66 - K_4_6_6 + K_6_4_6  = 0
 c180: - 11 Z_1 - 14 Z_2 - 19 Z_3 + X_66 + I_65 - I_66 - K_5_6_6 + K_6_5_6  = 0
 c181: X_11 - 1000 Y_11 <= 0
 c182: X_12 - 1000 Y_12 <= 0
 c183: X_13 - 1000 Y_13 <= 0
 c184: X_14 - 1000 Y_14 <= 0
 c185: X_15 - 1000 Y_15 <= 0
 c186: X_16 - 1000 Y_16 <= 0
 c187: X_21 - 1000 Y_21 <= 0
 c188: X_22 - 1000 Y_22 <= 0
 c189: X_23 - 1000 Y_23 <= 0
 c190: X_24 - 1000 Y_24 <= 0
 c191: X_25 - 1000 Y_25 <= 0
 c192: X_26 - 1000 Y_26 <= 0
 c193: X_31 - 1000 Y_31 <= 0
 c194: X_32 - 1000 Y_32 <= 0
 c195: X_33 - 1000 Y_33 <= 0
 c196: X_34 - 1000 Y_34 <= 0
 c197: X_35 - 1000 Y_35 <= 0
 c198: X_36 - 1000 Y_36 <= 0
 c199: X_41 - 1000 Y_41 <= 0
 c200: X_42 - 1000 Y_42 <= 0
 c201: X_43 - 1000 Y_43 <= 0
 c202: X_44 - 1000 Y_44 <= 0
 c203: X_45 - 1000 Y_45 <= 0
 c204: X_46 - 1000 Y_46 <= 0
 c205: X_51 - 1000 Y_51 <= 0
 c206: X_52 - 1000 Y_52 <= 0
 c207: X_53 - 1000 Y_53 <= 0
 c208: X_54 - 1000 Y_54 <= 0
 c209: X_55 - 1000 Y_55 <= 0
 c210: X_56 - 1000 Y_56 <= 0
 c211: X_61 - 1000 Y_61 <= 0
 c212: X_62 - 1000 Y_62 <= 0
 c213: X_63 - 1000 Y_63 <= 0
 c214: X_64 - 1000 Y_64 <= 0
 c215: X_65 - 1000 Y_65 <= 0
 c216: X_66 - 1000 Y_66 <= 0
Bounds
 0 <= Z_1 <= 1
 0 <= Z_2 <= 1
 0 <= Z_3 <= 1
      X_11 >= 0
      X_12 >= 0
      X_13 >= 0
      X_14 >= 0
      X_15 >= 0
      X_16 >= 0
 0 <= Y_12 <= 1
 0 <= Y_13 <= 1
 0 <= Y_14 <= 1
 0 <= Y_15 <= 1
 0 <= Y_16 <= 1
      I_11 >= 0
      I_12 >= 0
      I_13 >= 0
      I_14 >= 0
      I_15 >= 0
      I_16 >= 0
      X_21 >= 0
      X_22 >= 0
      X_23 >= 0
      X_24 >= 0
      X_25 >= 0
      X_26 >= 0
 0 <= Y_22 <= 1
 0 <= Y_23 <= 1
 0 <= Y_24 <= 1
 0 <= Y_25 <= 1
 0 <= Y_26 <= 1
      I_21 >= 0
      I_22 >= 0
      I_23 >= 0
      I_24 >= 0
      I_25 >= 0
      I_26 >= 0
      X_31 >= 0
      X_32 >= 0
      X_33 >= 0
      X_34 >= 0
      X_35 >= 0
      X_36 >= 0
 0 <= Y_32 <= 1
 0 <= Y_33 <= 1
 0 <= Y_34 <= 1
 0 <= Y_35 <= 1
 0 <= Y_36 <= 1
      I_31 >= 0
      I_32 >= 0
      I_33 >= 0
      I_34 >= 0
      I_35 >= 0
      I_36 >= 0
      X_41 >= 0
      X_42 >= 0
      X_43 >= 0
      X_44 >= 0
      X_45 >= 0
      X_46 >= 0
 0 <= Y_42 <= 1
 0 <= Y_43 <= 1
 0 <= Y_44 <= 1
 0 <= Y_45 <= 1
 0 <= Y_46 <= 1
      I_41 >= 0
      I_42 >= 0
      I_43 >= 0
      I_44 >= 0
      I_45 >= 0
      I_46 >= 0
      X_51 >= 0
      X_52 >= 0
      X_53 >= 0
      X_54 >= 0
      X_55 >= 0
      X_56 >= 0
 0 <= Y_52 <= 1
 0 <= Y_53 <= 1
 0 <= Y_54 <= 1
 0 <= Y_55 <= 1
 0 <= Y_56 <= 1
      I_51 >= 0
      I_52 >= 0
      I_53 >= 0
      I_54 >= 0
      I_55 >= 0
      I_56 >= 0
      X_61 >= 0
      X_62 >= 0
      X_63 >= 0
      X_64 >= 0
      X_65 >= 0
      X_66 >= 0
 0 <= Y_62 <= 1
 0 <= Y_63 <= 1
 0 <= Y_64 <= 1
 0 <= Y_65 <= 1
 0 <= Y_66 <= 1
      I_61 >= 0
      I_62 >= 0
      I_63 >= 0
      I_64 >= 0
      I_65 >= 0
      I_66 >= 0
      K_1_2_1 >= 0
      K_1_2_2 >= 0
      K_1_2_3 >= 0
      K_1_2_4 >= 0
      K_1_2_5 >= 0
      K_1_2_6 >= 0
      K_1_3_1 >= 0
      K_1_3_2 >= 0
      K_1_3_3 >= 0
      K_1_3_4 >= 0
      K_1_3_5 >= 0
      K_1_3_6 >= 0
      K_1_4_1 >= 0
      K_1_4_2 >= 0
      K_1_4_3 >= 0
      K_1_4_4 >= 0
      K_1_4_5 >= 0
      K_1_4_6 >= 0
      K_1_5_1 >= 0
      K_1_5_2 >= 0
      K_1_5_3 >= 0
      K_1_5_4 >= 0
      K_1_5_5 >= 0
      K_1_5_6 >= 0
      K_1_6_1 >= 0
      K_1_6_2 >= 0
      K_1_6_3 >= 0
      K_1_6_4 >= 0
      K_1_6_5 >= 0
      K_1_6_6 >= 0
      K_2_1_1 >= 0
      K_2_1_2 >= 0
      K_2_1_3 >= 0
      K_2_1_4 >= 0
      K_2_1_5 >= 0
      K_2_1_6 >= 0
      K_2_3_1 >= 0
      K_2_3_2 >= 0
      K_2_3_3 >= 0
      K_2_3_4 >= 0
      K_2_3_5 >= 0
      K_2_3_6 >= 0
      K_2_4_1 >= 0
      K_2_4_2 >= 0
      K_2_4_3 >= 0
      K_2_4_4 >= 0
      K_2_4_5 >= 0
      K_2_4_6 >= 0
      K_2_5_1 >= 0
      K_2_5_2 >= 0
      K_2_5_3 >= 0
      K_2_5_4 >= 0
      K_2_5_5 >= 0
      K_2_5_6 >= 0
      K_2_6_1 >= 0
      K_2_6_2 >= 0
      K_2_6_3 >= 0
      K_2_6_4 >= 0
      K_2_6_5 >= 0
      K_2_6_6 >= 0
      K_3_1_1 >= 0
      K_3_1_2 >= 0
      K_3_1_3 >= 0
      K_3_1_4 >= 0
      K_3_1_5 >= 0
      K_3_1_6 >= 0
      K_3_2_1 >= 0
      K_3_2_2 >= 0
      K_3_2_3 >= 0
      K_3_2_4 >= 0
      K_3_2_5 >= 0
      K_3_2_6 >= 0
      K_3_4_1 >= 0
      K_3_4_2 >= 0
      K_3_4_3 >= 0
      K_3_4_4 >= 0
      K_3_4_5 >= 0
      K_3_4_6 >= 0
      K_3_5_1 >= 0
      K_3_5_2 >= 0
      K_3_5_3 >= 0
      K_3_5_4 >= 0
      K_3_5_5 >= 0
      K_3_5_6 >= 0
      K_3_6_1 >= 0
      K_3_6_2 >= 0
      K_3_6_3 >= 0
      K_3_6_4 >= 0
      K_3_6_5 >= 0
      K_3_6_6 >= 0
      K_4_1_1 >= 0
      K_4_1_2 >= 0
      K_4_1_3 >= 0
      K_4_1_4 >= 0
      K_4_1_5 >= 0
      K_4_1_6 >= 0
      K_4_2_1 >= 0
      K_4_2_2 >= 0
      K_4_2_3 >= 0
      K_4_2_4 >= 0
      K_4_2_5 >= 0
      K_4_2_6 >= 0
      K_4_3_1 >= 0
      K_4_3_2 >= 0
      K_4_3_3 >= 0
      K_4_3_4 >= 0
      K_4_3_5 >= 0
      K_4_3_6 >= 0
      K_4_5_1 >= 0
      K_4_5_2 >= 0
      K_4_5_3 >= 0
      K_4_5_4 >= 0
      K_4_5_5 >= 0
      K_4_5_6 >= 0
      K_4_6_1 >= 0
      K_4_6_2 >= 0
      K_4_6_3 >= 0
      K_4_6_4 >= 0
      K_4_6_5 >= 0
      K_4_6_6 >= 0
      K_5_1_1 >= 0
      K_5_1_2 >= 0
      K_5_1_3 >= 0
      K_5_1_4 >= 0
      K_5_1_5 >= 0
      K_5_1_6 >= 0
      K_5_2_1 >= 0
      K_5_2_2 >= 0
      K_5_2_3 >= 0
      K_5_2_4 >= 0
      K_5_2_5 >= 0
      K_5_2_6 >= 0
      K_5_3_1 >= 0
      K_5_3_2 >= 0
      K_5_3_3 >= 0
      K_5_3_4 >= 0
      K_5_3_5 >= 0
      K_5_3_6 >= 0
      K_5_4_1 >= 0
      K_5_4_2 >= 0
      K_5_4_3 >= 0
      K_5_4_4 >= 0
      K_5_4_5 >= 0
      K_5_4_6 >= 0
      K_5_6_1 >= 0
      K_5_6_2 >= 0
      K_5_6_3 >= 0
      K_5_6_4 >= 0
      K_5_6_5 >= 0
      K_5_6_6 >= 0
      K_6_1_1 >= 0
      K_6_1_2 >= 0
      K_6_1_3 >= 0
      K_6_1_4 >= 0
      K_6_1_5 >= 0
      K_6_1_6 >= 0
      K_6_2_1 >= 0
      K_6_2_2 >= 0
      K_6_2_3 >= 0
      K_6_2_4 >= 0
      K_6_2_5 >= 0
      K_6_2_6 >= 0
      K_6_3_1 >= 0
      K_6_3_2 >= 0
      K_6_3_3 >= 0
      K_6_3_4 >= 0
      K_6_3_5 >= 0
      K_6_3_6 >= 0
      K_6_4_1 >= 0
      K_6_4_2 >= 0
      K_6_4_3 >= 0
      K_6_4_4 >= 0
      K_6_4_5 >= 0
      K_6_4_6 >= 0
      K_6_5_1 >= 0
      K_6_5_2 >= 0
      K_6_5_3 >= 0
      K_6_5_4 >= 0
      K_6_5_5 >= 0
      K_6_5_6 >= 0
 0 <= Y_11 <= 1
 0 <= Y_21 <= 1
 0 <= Y_31 <= 1
 0 <= Y_41 <= 1
 0 <= Y_51 <= 1
 0 <= Y_61 <= 1
Binaries
 Z_1  Z_2  Z_3  Y_12  Y_13  Y_14  Y_15  Y_16  Y_22  Y_23  Y_24  Y_25  Y_26 
 Y_32  Y_33  Y_34  Y_35  Y_36  Y_42  Y_43  Y_44  Y_45  Y_46  Y_52  Y_53  Y_54 
 Y_55  Y_56  Y_62  Y_63  Y_64  Y_65  Y_66  Y_11  Y_21  Y_31  Y_41  Y_51  Y_61 
Generals
 X_11  X_12  X_13  X_14  X_15  X_16  I_11  I_12  I_13  I_14  I_15  I_16  X_21 
 X_22  X_23  X_24  X_25  X_26  I_21  I_22  I_23  I_24  I_25  I_26  X_31  X_32 
 X_33  X_34  X_35  X_36  I_31  I_32  I_33  I_34  I_35  I_36  X_41  X_42  X_43 
 X_44  X_45  X_46  I_41  I_42  I_43  I_44  I_45  I_46  X_51  X_52  X_53  X_54 
 X_55  X_56  I_51  I_52  I_53  I_54  I_55  I_56  X_61  X_62  X_63  X_64  X_65 
 X_66  I_61  I_62  I_63  I_64  I_65  I_66  K_1_2_1  K_1_2_2  K_1_2_3  K_1_2_4 
 K_1_2_5  K_1_2_6  K_1_3_1  K_1_3_2  K_1_3_3  K_1_3_4  K_1_3_5  K_1_3_6 
 K_1_4_1  K_1_4_2  K_1_4_3  K_1_4_4  K_1_4_5  K_1_4_6  K_1_5_1  K_1_5_2 
 K_1_5_3  K_1_5_4  K_1_5_5  K_1_5_6  K_1_6_1  K_1_6_2  K_1_6_3  K_1_6_4 
 K_1_6_5  K_1_6_6  K_2_1_1  K_2_1_2  K_2_1_3  K_2_1_4  K_2_1_5  K_2_1_6 
 K_2_3_1  K_2_3_2  K_2_3_3  K_2_3_4  K_2_3_5  K_2_3_6  K_2_4_1  K_2_4_2 
 K_2_4_3  K_2_4_4  K_2_4_5  K_2_4_6  K_2_5_1  K_2_5_2  K_2_5_3  K_2_5_4 
 K_2_5_5  K_2_5_6  K_2_6_1  K_2_6_2  K_2_6_3  K_2_6_4  K_2_6_5  K_2_6_6 
 K_3_1_1  K_3_1_2  K_3_1_3  K_3_1_4  K_3_1_5  K_3_1_6  K_3_2_1  K_3_2_2 
 K_3_2_3  K_3_2_4  K_3_2_5  K_3_2_6  K_3_4_1  K_3_4_2  K_3_4_3  K_3_4_4 
 K_3_4_5  K_3_4_6  K_3_5_1  K_3_5_2  K_3_5_3  K_3_5_4  K_3_5_5  K_3_5_6 
 K_3_6_1  K_3_6_2  K_3_6_3  K_3_6_4  K_3_6_5  K_3_6_6  K_4_1_1  K_4_1_2 
 K_4_1_3  K_4_1_4  K_4_1_5  K_4_1_6  K_4_2_1  K_4_2_2  K_4_2_3  K_4_2_4 
 K_4_2_5  K_4_2_6  K_4_3_1  K_4_3_2  K_4_3_3  K_4_3_4  K_4_3_5  K_4_3_6 
 K_4_5_1  K_4_5_2  K_4_5_3  K_4_5_4  K_4_5_5  K_4_5_6  K_4_6_1  K_4_6_2 
 K_4_6_3  K_4_6_4  K_4_6_5  K_4_6_6  K_5_1_1  K_5_1_2  K_5_1_3  K_5_1_4 
 K_5_1_5  K_5_1_6  K_5_2_1  K_5_2_2  K_5_2_3  K_5_2_4  K_5_2_5  K_5_2_6 
 K_5_3_1  K_5_3_2  K_5_3_3  K_5_3_4  K_5_3_5  K_5_3_6  K_5_4_1  K_5_4_2 
 K_5_4_3  K_5_4_4  K_5_4_5  K_5_4_6  K_5_6_1  K_5_6_2  K_5_6_3  K_5_6_4 
 K_5_6_5  K_5_6_6  K_6_1_1  K_6_1_2  K_6_1_3  K_6_1_4  K_6_1_5  K_6_1_6 
 K_6_2_1  K_6_2_2  K_6_2_3  K_6_2_4  K_6_2_5  K_6_2_6  K_6_3_1  K_6_3_2 
 K_6_3_3  K_6_3_4  K_6_3_5  K_6_3_6  K_6_4_1  K_6_4_2  K_6_4_3  K_6_4_4 
 K_6_4_5  K_6_4_6  K_6_5_1  K_6_5_2  K_6_5_3  K_6_5_4  K_6_5_5  K_6_5_6 
End
